40 40 40
50
18 9 30
24 10 1
5 27 34
35 1 34
15 34 22
9 30 30
7 30 23
19 1 18
9 1 5
6 18 22
35 32 8
29 12 34
31 30 17
2 17 18
3 32 22
30 29 14
20 17 28
3 22 16
18 9 3
9 20 11
23 13 10
34 11 14
8 33 2
29 7 22
11 3 26
23 25 28
13 29 16
14 5 4
28 26 35
18 3 18
21 10 15
27 29 15
29 30 11
2 2 32
18 8 7
11 27 6
28 9 9
8 15 17
16 32 26
21 12 9
32 24 24
25 34 1
12 26 3
16 22 6
3 6 19
24 35 19
24 7 20
17 1 2
16 5 16
31 11 35
